\ Model FlowOPT
\ LP format - for model browsing. Use MPS format to capture full model detail.
Maximize
  0.4914788256446144 z[0,1] + 0.56604897827488 z[1,1]
   + 0.9056037220893879 z[2,1] + 0.8797561371491379 z[3,1]
   + 0.8138491110759656 z[4,1] + 0.6873700694149022 z[5,1]
   + 6.2400294136237 z[6,1] + 0.4649124203457088 z[7,1]
   + 0.6182509681388133 z[8,1] + 0.4423802025706245 z[9,1]
   + 0.6412729727314533 z[10,1] + 0.8344581751684189 z[11,1]
   + 0.6473512473964956 z[12,1] + 0.7029859441052488 z[13,1]
   + 0.364699155362779 z[14,1] + 0.3650998146104256 z[15,1]
   + 0.5614383942530901 z[16,1] + 0.4536286894235789 z[17,1]
   + 1.057800459170723 z[18,1] + 0.4835739119811766 z[19,1]
   + 3.91320873477405 z[21,1] + 0.2717897140651133 z[22,1]
   + 0.62289638044631 z[23,1] + 0.4591898861633222 z[24,1]
   + 0.5835767607779979 z[25,1] + 7.25014435693441 z[26,1]
   + 0.4873033180988967 z[27,1] + 0.7065694174888144 z[28,1]
   + 0.6187851376270533 z[29,1] + 0.605180822197481 z[30,1]
   + 0.4234695888514722 z[31,1] + 0.3394104117663211 z[32,1]
   + 0.6655111346365767 z[33,1] + 1.47078472605048 z[34,1]
   + 0.4057316320041199 z[35,1] + 0.7074739063354502 z[36,1]
   + 0.6629757121991389 z[37,1] + 0.6743076420469289 z[38,1]
   + 0.39651707410231 z[39,1] + 0.5744033091098211 z[40,1]
   + 0.7657561442088479 z[41,1] + 0.4246557169752878 z[42,1]
   + 1.017094423160403 z[43,1] + 0.4671239266295123 z[44,1]
   + 0.4304971456752334 z[45,1] + 0.54323252184848 z[46,1]
   + 0.6482380696559089 z[47,1] + 0.5277459946336245 z[48,1]
   + 0.4844118104546378 z[49,1] + 0.6636888478873301 z[50,1]
   + 0.7458041871603145 z[51,1] + 6.53164343307743 z[52,1]
   + 0.7845387084852612 z[53,1] + 5.474079487434079 z[54,1]
   + 0.9190171139645501 z[55,1] + 0.2573431159972734 z[56,1]
   + 1.111111111111111 z[57,1] + 0.6352867661169079 z[58,1]
   + 0.7098830832381767 z[59,1] + 0.4091346376347655 z[60,1]
   + 0.4536207410210512 z[61,1] + 0.49123299562419 z[62,1]
   + 5.500096825373761 z[63,1] + 0.5744580620139346 z[64,1]
   + 0.5887357830011433 z[65,1] + 0.687101920905969 z[66,1]
   + 0.6806581939473834 z[67,1] + 0.9179025120756845 z[68,1]
   + 1.073735942557262 z[69,1] + 0.6477561880166101 z[70,1]
   + 0.1865982451861089 z[71,1] + 0.6792445543248767 z[72,1]
   + 0.4576856071506155 z[73,1] + 0.8760393002308365 z[74,1]
   + 0.6794037341556857 z[75,1] + 0.4422297392634023 z[76,1]
   + 0.9001104635538921 z[77,1] + 0.9089185784722379 z[78,1]
   + 0.5521000367012745 z[79,1] + 0.6877931057454088 z[80,1]
   + 0.4347197030695422 z[81,1] + 0.6636100582646733 z[82,1]
   + 0.6143053813509234 z[83,1] + 0.5004574477509756 z[84,1]
   + 3.32487667742548 z[85,1] + 0.3635869873518056 z[86,1]
   + 0.3994080321821255 z[87,1] + 0.7188485774070811 z[88,1]
   + 2.96889599574924 z[89,1] + 0.6110083883104845 z[90,1]
   + 0.4978681917635422 z[91,1] + 0.626603558954419 z[92,1]
   + 0.6465786481452357 z[93,1] + 0.7129947790773644 z[94,1]
   + 0.3107426268054322 z[95,1] + 1.006109773589347 z[96,1]
   + 0.8204797177296935 z[97,1] + 0.835151166112941 z[98,1]
   + 0.477596372664559 z[99,1]
Subject To
 R0: p[1] = 1
 R1: - w[1,0] + zeta[0,1] <= 0
 R2: - w[1,1] + zeta[1,1] <= 0
 R3: - w[1,1] + zeta[2,1] <= 0
 R4: - w[1,1] + zeta[3,1] <= 0
 R5: - w[1,1] + zeta[4,1] <= 0
 R6: - w[1,1] + zeta[5,1] <= 0
 R7: - w[1,0] + zeta[6,1] <= 0
 R8: - w[1,0] + zeta[7,1] <= 0
 R9: - w[1,0] + zeta[8,1] <= 0
 R10: - w[1,0] + zeta[9,1] <= 0
 R11: - w[1,1] + zeta[10,1] <= 0
 R12: - w[1,1] + zeta[11,1] <= 0
 R13: - w[1,1] + zeta[12,1] <= 0
 R14: - w[1,0] + zeta[13,1] <= 0
 R15: - w[1,0] + zeta[14,1] <= 0
 R16: - w[1,1] + zeta[15,1] <= 0
 R17: - w[1,1] + zeta[16,1] <= 0
 R18: - w[1,0] + zeta[17,1] <= 0
 R19: - w[1,1] + zeta[18,1] <= 0
 R20: - w[1,0] + zeta[19,1] <= 0
 R21: - w[1,1] + zeta[20,1] <= 0
 R22: - w[1,0] + zeta[21,1] <= 0
 R23: - w[1,0] + zeta[22,1] <= 0
 R24: - w[1,0] + zeta[23,1] <= 0
 R25: - w[1,0] + zeta[24,1] <= 0
 R26: - w[1,0] + zeta[25,1] <= 0
 R27: - w[1,0] + zeta[26,1] <= 0
 R28: - w[1,1] + zeta[27,1] <= 0
 R29: - w[1,0] + zeta[28,1] <= 0
 R30: - w[1,1] + zeta[29,1] <= 0
 R31: - w[1,1] + zeta[30,1] <= 0
 R32: - w[1,0] + zeta[31,1] <= 0
 R33: - w[1,1] + zeta[32,1] <= 0
 R34: - w[1,1] + zeta[33,1] <= 0
 R35: - w[1,0] + zeta[34,1] <= 0
 R36: - w[1,1] + zeta[35,1] <= 0
 R37: - w[1,1] + zeta[36,1] <= 0
 R38: - w[1,1] + zeta[37,1] <= 0
 R39: - w[1,0] + zeta[38,1] <= 0
 R40: - w[1,0] + zeta[39,1] <= 0
 R41: - w[1,0] + zeta[40,1] <= 0
 R42: - w[1,0] + zeta[41,1] <= 0
 R43: - w[1,0] + zeta[42,1] <= 0
 R44: - w[1,1] + zeta[43,1] <= 0
 R45: - w[1,1] + zeta[44,1] <= 0
 R46: - w[1,0] + zeta[45,1] <= 0
 R47: - w[1,0] + zeta[46,1] <= 0
 R48: - w[1,0] + zeta[47,1] <= 0
 R49: - w[1,1] + zeta[48,1] <= 0
 R50: - w[1,0] + zeta[49,1] <= 0
 R51: - w[1,1] + zeta[50,1] <= 0
 R52: - w[1,0] + zeta[51,1] <= 0
 R53: - w[1,0] + zeta[52,1] <= 0
 R54: - w[1,1] + zeta[53,1] <= 0
 R55: - w[1,1] + zeta[54,1] <= 0
 R56: - w[1,1] + zeta[55,1] <= 0
 R57: - w[1,0] + zeta[56,1] <= 0
 R58: - w[1,1] + zeta[57,1] <= 0
 R59: - w[1,1] + zeta[58,1] <= 0
 R60: - w[1,1] + zeta[59,1] <= 0
 R61: - w[1,1] + zeta[60,1] <= 0
 R62: - w[1,0] + zeta[61,1] <= 0
 R63: - w[1,0] + zeta[62,1] <= 0
 R64: - w[1,1] + zeta[63,1] <= 0
 R65: - w[1,0] + zeta[64,1] <= 0
 R66: - w[1,1] + zeta[65,1] <= 0
 R67: - w[1,0] + zeta[66,1] <= 0
 R68: - w[1,1] + zeta[67,1] <= 0
 R69: - w[1,1] + zeta[68,1] <= 0
 R70: - w[1,1] + zeta[69,1] <= 0
 R71: - w[1,0] + zeta[70,1] <= 0
 R72: - w[1,0] + zeta[71,1] <= 0
 R73: - w[1,1] + zeta[72,1] <= 0
 R74: - w[1,0] + zeta[73,1] <= 0
 R75: - w[1,0] + zeta[74,1] <= 0
 R76: - w[1,1] + zeta[75,1] <= 0
 R77: - w[1,0] + zeta[76,1] <= 0
 R78: - w[1,0] + zeta[77,1] <= 0
 R79: - w[1,1] + zeta[78,1] <= 0
 R80: - w[1,1] + zeta[79,1] <= 0
 R81: - w[1,1] + zeta[80,1] <= 0
 R82: - w[1,1] + zeta[81,1] <= 0
 R83: - w[1,0] + zeta[82,1] <= 0
 R84: - w[1,1] + zeta[83,1] <= 0
 R85: - w[1,0] + zeta[84,1] <= 0
 R86: - w[1,0] + zeta[85,1] <= 0
 R87: - w[1,1] + zeta[86,1] <= 0
 R88: - w[1,1] + zeta[87,1] <= 0
 R89: - w[1,0] + zeta[88,1] <= 0
 R90: - w[1,0] + zeta[89,1] <= 0
 R91: - w[1,1] + zeta[90,1] <= 0
 R92: - w[1,1] + zeta[91,1] <= 0
 R93: - w[1,1] + zeta[92,1] <= 0
 R94: - w[1,0] + zeta[93,1] <= 0
 R95: - w[1,1] + zeta[94,1] <= 0
 R96: - w[1,0] + zeta[95,1] <= 0
 R97: - w[1,1] + zeta[96,1] <= 0
 R98: - w[1,1] + zeta[97,1] <= 0
 R99: - w[1,0] + zeta[98,1] <= 0
 R100: - w[1,0] + zeta[99,1] <= 0
 R101: - p[1] + w[1,0] + w[1,1] = 0
 R102: zeta[0,1] - z[0,1] = 0
 R103: zeta[1,1] - z[1,1] = 0
 R104: zeta[2,1] - z[2,1] = 0
 R105: zeta[3,1] - z[3,1] = 0
 R106: zeta[4,1] - z[4,1] = 0
 R107: zeta[5,1] - z[5,1] = 0
 R108: zeta[6,1] - z[6,1] = 0
 R109: zeta[7,1] - z[7,1] = 0
 R110: zeta[8,1] - z[8,1] = 0
 R111: zeta[9,1] - z[9,1] = 0
 R112: zeta[10,1] - z[10,1] = 0
 R113: zeta[11,1] - z[11,1] = 0
 R114: zeta[12,1] - z[12,1] = 0
 R115: zeta[13,1] - z[13,1] = 0
 R116: zeta[14,1] - z[14,1] = 0
 R117: zeta[15,1] - z[15,1] = 0
 R118: zeta[16,1] - z[16,1] = 0
 R119: zeta[17,1] - z[17,1] = 0
 R120: zeta[18,1] - z[18,1] = 0
 R121: zeta[19,1] - z[19,1] = 0
 R122: zeta[20,1] - z[20,1] = 0
 R123: zeta[21,1] - z[21,1] = 0
 R124: zeta[22,1] - z[22,1] = 0
 R125: zeta[23,1] - z[23,1] = 0
 R126: zeta[24,1] - z[24,1] = 0
 R127: zeta[25,1] - z[25,1] = 0
 R128: zeta[26,1] - z[26,1] = 0
 R129: zeta[27,1] - z[27,1] = 0
 R130: zeta[28,1] - z[28,1] = 0
 R131: zeta[29,1] - z[29,1] = 0
 R132: zeta[30,1] - z[30,1] = 0
 R133: zeta[31,1] - z[31,1] = 0
 R134: zeta[32,1] - z[32,1] = 0
 R135: zeta[33,1] - z[33,1] = 0
 R136: zeta[34,1] - z[34,1] = 0
 R137: zeta[35,1] - z[35,1] = 0
 R138: zeta[36,1] - z[36,1] = 0
 R139: zeta[37,1] - z[37,1] = 0
 R140: zeta[38,1] - z[38,1] = 0
 R141: zeta[39,1] - z[39,1] = 0
 R142: zeta[40,1] - z[40,1] = 0
 R143: zeta[41,1] - z[41,1] = 0
 R144: zeta[42,1] - z[42,1] = 0
 R145: zeta[43,1] - z[43,1] = 0
 R146: zeta[44,1] - z[44,1] = 0
 R147: zeta[45,1] - z[45,1] = 0
 R148: zeta[46,1] - z[46,1] = 0
 R149: zeta[47,1] - z[47,1] = 0
 R150: zeta[48,1] - z[48,1] = 0
 R151: zeta[49,1] - z[49,1] = 0
 R152: zeta[50,1] - z[50,1] = 0
 R153: zeta[51,1] - z[51,1] = 0
 R154: zeta[52,1] - z[52,1] = 0
 R155: zeta[53,1] - z[53,1] = 0
 R156: zeta[54,1] - z[54,1] = 0
 R157: zeta[55,1] - z[55,1] = 0
 R158: zeta[56,1] - z[56,1] = 0
 R159: zeta[57,1] - z[57,1] = 0
 R160: zeta[58,1] - z[58,1] = 0
 R161: zeta[59,1] - z[59,1] = 0
 R162: zeta[60,1] - z[60,1] = 0
 R163: zeta[61,1] - z[61,1] = 0
 R164: zeta[62,1] - z[62,1] = 0
 R165: zeta[63,1] - z[63,1] = 0
 R166: zeta[64,1] - z[64,1] = 0
 R167: zeta[65,1] - z[65,1] = 0
 R168: zeta[66,1] - z[66,1] = 0
 R169: zeta[67,1] - z[67,1] = 0
 R170: zeta[68,1] - z[68,1] = 0
 R171: zeta[69,1] - z[69,1] = 0
 R172: zeta[70,1] - z[70,1] = 0
 R173: zeta[71,1] - z[71,1] = 0
 R174: zeta[72,1] - z[72,1] = 0
 R175: zeta[73,1] - z[73,1] = 0
 R176: zeta[74,1] - z[74,1] = 0
 R177: zeta[75,1] - z[75,1] = 0
 R178: zeta[76,1] - z[76,1] = 0
 R179: zeta[77,1] - z[77,1] = 0
 R180: zeta[78,1] - z[78,1] = 0
 R181: zeta[79,1] - z[79,1] = 0
 R182: zeta[80,1] - z[80,1] = 0
 R183: zeta[81,1] - z[81,1] = 0
 R184: zeta[82,1] - z[82,1] = 0
 R185: zeta[83,1] - z[83,1] = 0
 R186: zeta[84,1] - z[84,1] = 0
 R187: zeta[85,1] - z[85,1] = 0
 R188: zeta[86,1] - z[86,1] = 0
 R189: zeta[87,1] - z[87,1] = 0
 R190: zeta[88,1] - z[88,1] = 0
 R191: zeta[89,1] - z[89,1] = 0
 R192: zeta[90,1] - z[90,1] = 0
 R193: zeta[91,1] - z[91,1] = 0
 R194: zeta[92,1] - z[92,1] = 0
 R195: zeta[93,1] - z[93,1] = 0
 R196: zeta[94,1] - z[94,1] = 0
 R197: zeta[95,1] - z[95,1] = 0
 R198: zeta[96,1] - z[96,1] = 0
 R199: zeta[97,1] - z[97,1] = 0
 R200: zeta[98,1] - z[98,1] = 0
 R201: zeta[99,1] - z[99,1] = 0
Bounds
Binaries
 p[1]
End
